letting n =  10
letting blocks =  [[1, 2], [1, 8], [1, 10], [2, 3], [2, 4], [2, 7], [2, 9], [3, 10], [4, 3], [4, 6], [5, 10], [6, 1], [6, 2], [6, 6], [6, 9], [7, 8], [7, 9], [7, 10], [8, 4], [8, 7], [8, 8], [9, 1], [9, 2], [9, 5], [9, 6], [9, 7], [10, 1], [10, 6]]
